/* objective function */
min: 1.080 x11 + 1.095 x12 + 1.110 x13 + 1.125 x14 + 20 x21 + 1.110 x22 + 1.125 x23 + 1.140 x24 + 20 x31 + 20 x32 + 1.100 x33 + 1.115 x34 + 20 x41 + 20 x42 + 20 x43 + 1.130 x44;

/* constraints */
S1: x11 + x12 + x13 + x14 + x15 = 25;
S2: x21 + x22 + x23 + x24 + x25 = 35;
S3: x31 + x32 + x33 + x34 + x35 = 30;
S4: x41 + x42 + x43 + x44 + x45 = 10;
D1: x11 + x21 + x31 + x41 = 10;
D2: +x12 +x22 +x32 +x42 = 15;
D3: +x13 +x23 +x33 +x43 = 25;
D4: +x14 +x24 +x34 +x44 = 20;
D5: +x15 +x25 +x35 +x45 = 30;